
        $ From http://www.csplib.org/Problems/prob009/data/helmut.pdf
        $ Problem number 95
        $ Sequence length : 25
        language ESSENCE' 1.0
        letting sizemaster be 328
        letting sizes be sequence(2,3,4,7,8,10,14,17,26,27,28,36,38,40,42,45,53,58,73,74,79,94,102,152,176)
        